self-compositions/words_1/words_908_SAT.qaiger
aag 74 16 0 1 58
30
8
18
10
20
28
6
32
16
2
12
14
22
4
24
26
148
34 5 3
36 34 7
38 36 9
40 38 11
42 40 13
44 42 15
46 32 2
48 46 17
50 47 16
52 51 49
54 52 45
56 43 14
58 57 45
60 30 4
62 61 58
64 63 55
66 26 8
68 67 39
70 68 10
72 69 11
74 73 71
76 37 8
78 77 39
80 24 10
82 81 78
84 80 79
86 85 83
88 86 75
90 53 44
92 18 16
94 93 3
96 20 14
98 96 4
100 97 5
102 101 99
104 103 95
106 92 2
108 107 102
110 35 6
112 111 37
114 22 12
116 114 113
118 115 112
120 119 117
122 120 109
124 122 105
126 124 91
128 126 88
130 128 64
132 60 59
134 41 12
136 135 43
138 28 6
140 139 136
142 138 137
144 143 141
146 144 133
148 146 130
i0 1 x[6]
i1 2 z[3]
i2 1 x[0]
i3 2 z[4]
i4 1 x[1]
i5 1 x[5]
i6 2 z[2]
i7 1 x[7]
i8 2 z[7]
i9 2 z[0]
i10 2 z[5]
i11 2 z[6]
i12 1 x[2]
i13 2 z[1]
i14 1 x[3]
i15 1 x[4]
o0 bool[0]
c
simplified
  ==
    add
      1
      invert
        2 z
    and
      reverse
        2 z
      1 x
