self-compositions/words_1/words_908_SAT.qaiger.qdimacs
p cnf 74 175
a 9 10 11 12 13 14 15 16 0
e 1 2 3 4 5 6 7 8 17 18 19 20 21 22 23 24 25 26 27 28 29 30 31 32 33 34 35 36 37 38 39 40 41 42 43 44 45 46 47 48 49 50 51 52 53 54 55 56 57 58 59 60 61 62 63 64 65 66 67 68 69 70 71 72 73 74 0
2 1 17 0
-2 -17 0
-1 -17 0
-17 3 18 0
17 -18 0
-3 -18 0
-18 4 19 0
18 -19 0
-4 -19 0
-19 5 20 0
19 -20 0
-5 -20 0
-20 6 21 0
20 -21 0
-6 -21 0
-21 7 22 0
21 -22 0
-7 -22 0
-16 -1 23 0
16 -23 0
1 -23 0
-23 8 24 0
23 -24 0
-8 -24 0
23 -8 25 0
-23 -25 0
8 -25 0
25 24 26 0
-25 -26 0
-24 -26 0
-26 22 27 0
26 -27 0
-22 -27 0
21 -7 28 0
-21 -28 0
7 -28 0
28 22 29 0
-28 -29 0
-22 -29 0
-15 -2 30 0
15 -30 0
2 -30 0
30 -29 31 0
-30 -31 0
29 -31 0
31 27 32 0
-31 -32 0
-27 -32 0
-13 -4 33 0
13 -33 0
4 -33 0
33 19 34 0
-33 -34 0
-19 -34 0
-34 -5 35 0
34 -35 0
5 -35 0
34 5 36 0
-34 -36 0
-5 -36 0
36 35 37 0
-36 -37 0
-35 -37 0
18 -4 38 0
-18 -38 0
4 -38 0
38 19 39 0
-38 -39 0
-19 -39 0
-12 -5 40 0
12 -40 0
5 -40 0
40 -39 41 0
-40 -41 0
39 -41 0
-40 39 42 0
40 -42 0
-39 -42 0
42 41 43 0
-42 -43 0
-41 -43 0
-43 37 44 0
43 -44 0
-37 -44 0
26 -22 45 0
-26 -45 0
22 -45 0
-9 -8 46 0
9 -46 0
8 -46 0
46 1 47 0
-46 -47 0
-1 -47 0
-10 -7 48 0
10 -48 0
7 -48 0
-48 -2 49 0
48 -49 0
2 -49 0
48 2 50 0
-48 -50 0
-2 -50 0
50 49 51 0
-50 -51 0
-49 -51 0
51 47 52 0
-51 -52 0
-47 -52 0
-46 -1 53 0
46 -53 0
1 -53 0
53 -51 54 0
-53 -54 0
51 -54 0
17 -3 55 0
-17 -55 0
3 -55 0
55 18 56 0
-55 -56 0
-18 -56 0
-11 -6 57 0
11 -57 0
6 -57 0
-57 56 58 0
57 -58 0
-56 -58 0
57 -56 59 0
-57 -59 0
56 -59 0
59 58 60 0
-59 -60 0
-58 -60 0
-60 54 61 0
60 -61 0
-54 -61 0
-61 52 62 0
61 -62 0
-52 -62 0
-62 45 63 0
62 -63 0
-45 -63 0
-63 -44 64 0
63 -64 0
44 -64 0
-64 -32 65 0
64 -65 0
32 -65 0
-30 29 66 0
30 -66 0
-29 -66 0
20 -6 67 0
-20 -67 0
6 -67 0
67 21 68 0
-67 -68 0
-21 -68 0
-14 -3 69 0
14 -69 0
3 -69 0
69 -68 70 0
-69 -70 0
68 -70 0
-69 68 71 0
69 -71 0
-68 -71 0
71 70 72 0
-71 -72 0
-70 -72 0
-72 66 73 0
72 -73 0
-66 -73 0
-73 -65 74 0
73 -74 0
65 -74 0
74 0
